Authors,Title,Year,Source title,Volume,Issue,Art. No.,Page start,Page end,Page count,Cited by,DOI,Link,Document Type,Source,EID
"Scholz, C.H.","On the stress dependence of the earthquake b value",2015,"Geophysical Research Letters","42","5",,"1399","1402",,25,10.1002/2014GL062863,"https://www.scopus.com/inward/record.uri?eid=2-s2.0-84925874577&doi=10.1002%2f2014GL062863&partnerID=40&md5=54218700689ac4a9b737bae8296e2e61",Article,Scopus,2-s2.0-84925874577
"Anders, M.H., Laubach, S.E., Scholz, C.H.","Microfractures: A review",2014,"Journal of Structural Geology","69","PB",,"377","394",,21,10.1016/j.jsg.2014.05.011,"https://www.scopus.com/inward/record.uri?eid=2-s2.0-84907686446&doi=10.1016%2fj.jsg.2014.05.011&partnerID=40&md5=ec4b3d9dc207c36b22d8051e93c06f1f",Article,Scopus,2-s2.0-84907686446
"Scholz, C.H.","The rupture mode of the shallow large-slip surge of the Tohoku-Oki Earthquake",2014,"Bulletin of the Seismological Society of America","104","5",,"2627","2631",,4,10.1785/0120140130,"https://www.scopus.com/inward/record.uri?eid=2-s2.0-84908110052&doi=10.1785%2f0120140130&partnerID=40&md5=840a5b48a6cbc70ded749bcf5d8a075b",Article,Scopus,2-s2.0-84908110052
"Scholz, C.H.","Holocene earthquake history of Cascadia: A quantitative test",2014,"Bulletin of the Seismological Society of America","104","4",,"2120","2124",,4,10.1785/0120140002,"https://www.scopus.com/inward/record.uri?eid=2-s2.0-84905674633&doi=10.1785%2f0120140002&partnerID=40&md5=f421c2abe45a3c03ef8319382f442b12",Article,Scopus,2-s2.0-84905674633
"Cowie, P.A., Scholz, C.H., Roberts, G.P., Faure Walker, J.P., Steer, P.","Viscous roots of active seismogenic faults revealed by geologic slip rate variations",2013,"Nature Geoscience","6","12",,"1036","1040",,7,10.1038/ngeo1991,"https://www.scopus.com/inward/record.uri?eid=2-s2.0-84889019407&doi=10.1038%2fngeo1991&partnerID=40&md5=529f820025d7e55e4c7024fe92fd20f2",Article,Scopus,2-s2.0-84889019407
"Anders, M.H., Schneider, J.R., Scholz, C.H., Losh, S.","Mode I microfracturing and fluid flow in damage zones: The key to distinguishing faults from slides",2013,"Journal of Structural Geology","48",,,"113","125",,6,10.1016/j.jsg.2012.11.010,"https://www.scopus.com/inward/record.uri?eid=2-s2.0-84873718218&doi=10.1016%2fj.jsg.2012.11.010&partnerID=40&md5=f6947b7a9470a537bf03e4a1d5ca5e1a",Article,Scopus,2-s2.0-84873718218
"Scholz, C.H., Campos, J.","The seismic coupling of subduction zones revisited",2012,"Journal of Geophysical Research: Solid Earth","117","5", B05310,"","",,40,10.1029/2011JB009003,"https://www.scopus.com/inward/record.uri?eid=2-s2.0-84861446195&doi=10.1029%2f2011JB009003&partnerID=40&md5=53c43e070e1e4672e170fd27d21b8d0e",Article,Scopus,2-s2.0-84861446195
"Scholz, C.H.","First-order splay faults: Dip-slip examples",2011,"Geological Society Special Publication","359","1",,"313","318",,2,10.1144/SP359.17,"https://www.scopus.com/inward/record.uri?eid=2-s2.0-84055200292&doi=10.1144%2fSP359.17&partnerID=40&md5=6657b735cea3c17fd76e005f261d6e43",Article,Scopus,2-s2.0-84055200292
"Scholz, C.H.","Reply to comments of Jon Olson and Richard Schultz",2011,"Journal of Structural Geology","33","10",,"1525","1526",,4,10.1016/j.jsg.2011.07.006,"https://www.scopus.com/inward/record.uri?eid=2-s2.0-80052965326&doi=10.1016%2fj.jsg.2011.07.006&partnerID=40&md5=467f7ffc812633987c4c607bccf99dab",Note,Scopus,2-s2.0-80052965326
"Scholz, C.H.","A note on the scaling relations for opening mode fractures in rock",2010,"Journal of Structural Geology","32","10",,"1485","1487",,14,10.1016/j.jsg.2010.09.007,"https://www.scopus.com/inward/record.uri?eid=2-s2.0-78649454764&doi=10.1016%2fj.jsg.2010.09.007&partnerID=40&md5=90c9e95e53e49f2463790bcb227eaf5d",Article,Scopus,2-s2.0-78649454764
"Scholz, C.H.","Large earthquake triggering, clustering, and the synchronization of faults",2010,"Bulletin of the Seismological Society of America","100","3",,"901","909",,42,10.1785/0120090309,"https://www.scopus.com/inward/record.uri?eid=2-s2.0-77952642247&doi=10.1785%2f0120090309&partnerID=40&md5=3f995d430fb0f280d936885935b1f5a3",Article,Scopus,2-s2.0-77952642247
"Scholz, C.H., Ando, R., Shaw, B.E.","The mechanics of first order splay faulting: The strike-slip case",2010,"Journal of Structural Geology","32","1",,"118","126",,16,10.1016/j.jsg.2009.10.007,"https://www.scopus.com/inward/record.uri?eid=2-s2.0-73449094145&doi=10.1016%2fj.jsg.2009.10.007&partnerID=40&md5=43f87ec8d5e3082f35d280c49ad2283c",Article,Scopus,2-s2.0-73449094145
"Ando, R., Shaw, B.E., Scholz, C.H.","Quantifying natural fault geometry: Statistical of splay fault angles",2009,"Bulletin of the Seismological Society of America","99","1",,"389","395",,8,10.1785/0120080942,"https://www.scopus.com/inward/record.uri?eid=2-s2.0-60649116784&doi=10.1785%2f0120080942&partnerID=40&md5=a00df45589a26c92a25c404175e48f78",Article,Scopus,2-s2.0-60649116784
"Karcz, Z., Aharonov, E., Ertas, D., Polizzotti, R., Scholz, C.H.","Deformation by dissolution and plastic flow of a single crystal sodium chloride indenter. An experimental study under the confocal microscope",2008,"Journal of Geophysical Research: Solid Earth","113","4", B04205,"","",,12,10.1029/2006JB004630,"https://www.scopus.com/inward/record.uri?eid=2-s2.0-45149121630&doi=10.1029%2f2006JB004630&partnerID=40&md5=110bff586f054e803a24852feb0f062e",Article,Scopus,2-s2.0-45149121630
"Scholz, C.H.","Fault Mechanics",2007,"Treatise on Geophysics","6",,,"441","483",,9,10.1016/B978-044452748-6.00111-5,"https://www.scopus.com/inward/record.uri?eid=2-s2.0-84882848891&doi=10.1016%2fB978-044452748-6.00111-5&partnerID=40&md5=ef1c66dfe32a8f978eb6d849ba692db3",Book Chapter,Scopus,2-s2.0-84882848891
"Nakatani, M., Scholz, C.H.","Intrinsic and apparent short-time limits for fault healing: Theory, observations, and implications for velocity-dependent friction",2006,"Journal of Geophysical Research: Solid Earth","111","12", B12208,"","",,26,10.1029/2005JB004096,"https://www.scopus.com/inward/record.uri?eid=2-s2.0-34547857826&doi=10.1029%2f2005JB004096&partnerID=40&md5=264f0f93c4c71d18f0f00d9703eae224",Article,Scopus,2-s2.0-34547857826
"Karcz, Z., Aharonov, E., Ertas, D., Polizzotti, R., Scholz, C.H.","Stability of a sodium chloride indenter contact undergoing pressure solution",2006,"Geology","34","1",,"61","63",,15,10.1130/G21722.1,"https://www.scopus.com/inward/record.uri?eid=2-s2.0-31344464964&doi=10.1130%2fG21722.1&partnerID=40&md5=679f7493afe032f157f198e5f03dfb26",Article,Scopus,2-s2.0-31344464964
"Scholz, C.H.","The scaling of geological faults",2005,"11th International Conference on Fracture 2005, ICF11","8",,,"5958","5961",,3,,"https://www.scopus.com/inward/record.uri?eid=2-s2.0-84869769807&partnerID=40&md5=ea2d1e33876a3a19104d73b38d6c7176",Conference Paper,Scopus,2-s2.0-84869769807
"Milsch, H.H., Scholz, C.H.","Dehydration-induced weakening and fault slip in gypsum: Implications for the faulting process at intermediate depth in subduction zones",2005,"Journal of Geophysical Research B: Solid Earth","110","4",,"1","16",,22,10.1029/2004JB003324,"https://www.scopus.com/inward/record.uri?eid=2-s2.0-21844455819&doi=10.1029%2f2004JB003324&partnerID=40&md5=094b91e554c66ddbd2353338133cae61",Article,Scopus,2-s2.0-21844455819
"Scholz, C.H., Lawler, T.M.","Slip tapers at the tips of faults and earthquake ruptures",2004,"Geophysical Research Letters","31","21",,"L21609 1","4",,9,10.1029/2004GL021030,"https://www.scopus.com/inward/record.uri?eid=2-s2.0-13244262902&doi=10.1029%2f2004GL021030&partnerID=40&md5=d16342f2a49f6b5fa93e7293ee34bc40",Article,Scopus,2-s2.0-13244262902
"Nakatani, M., Scholz, C.H.","Frictional healing of quartz gouge under hydrothermal conditions: 2. Quantitative interpretation with a physical model",2004,"Journal of Geophysical Research B: Solid Earth","109","7",,"B07202 1","10",,27,10.1029/2003JB002938,"https://www.scopus.com/inward/record.uri?eid=2-s2.0-4644260179&doi=10.1029%2f2003JB002938&partnerID=40&md5=cb507b0cbc6de57ece1e8606f5d1a2e7",Article,Scopus,2-s2.0-4644260179
"Nakatani, M., Scholz, C.H.","Frictional healing of quartz gouge under hydrothermal conditions: 1. Experimental evidence for solution transfer healing mechanism",2004,"Journal of Geophysical Research B: Solid Earth","109","7",,"B07201 1","19",,46,10.1029/2001JB001522,"https://www.scopus.com/inward/record.uri?eid=2-s2.0-4644235009&doi=10.1029%2f2001JB001522&partnerID=40&md5=6ab357f46b77e9f4cb68fc40481964c6",Article,Scopus,2-s2.0-4644235009
"Christova, C., Scholz, C.H., Kao, H.","Stress field in the Vanuatu (New Hebrides) Wadati-Benioff zone inferred by inversion of earthquake focal mechanisms: Evidence for systematic lateral and vertical variations of principal stresses",2004,"Journal of Geodynamics","37","2",,"125","137",,6,10.1016/j.jog.2003.11.001,"https://www.scopus.com/inward/record.uri?eid=2-s2.0-1942435378&doi=10.1016%2fj.jog.2003.11.001&partnerID=40&md5=c8a3ddb031412a0c9a5727d935b4d157",Article,Scopus,2-s2.0-1942435378
"Scholz, C.H.","Good tidings",2003,"Nature","425","6959",,"670","671",,17,10.1038/425670a,"https://www.scopus.com/inward/record.uri?eid=2-s2.0-0142246456&doi=10.1038%2f425670a&partnerID=40&md5=68849b370955a4f98ee700d3fc1fa0fe",Short Survey,Scopus,2-s2.0-0142246456
"Aoki, Y., Scholz, C.H.","Interseismic deformation at the Nankai subduction zone and the Median Tectonic Line, southwest Japan",2003,"Journal of Geophysical Research B: Solid Earth","108","10",,"ETG 5","1 - ETG 5-10",,11,,"https://www.scopus.com/inward/record.uri?eid=2-s2.0-1442338284&partnerID=40&md5=83b5b934c751eb4cdfaa3e8e486c4cf2",Article,Scopus,2-s2.0-1442338284
"Steblov, G.M., Kogan, M.G., King, R.W., Scholz, C.H., Bürgmann, R., Frolov, D.I.","Imprint of the North American plate in Siberia revealed by GPS",2003,"Geophysical Research Letters","30","18",,"SDE 2","1 - 2-4",,35,10.1029/2003GL017805,"https://www.scopus.com/inward/record.uri?eid=2-s2.0-0346911843&doi=10.1029%2f2003GL017805&partnerID=40&md5=3bc85509db2cadd384c4efac3f43e755",Article,Scopus,2-s2.0-0346911843
"Karcz, Z., Scholz, C.H.","The fractal geometry of some stylolites from the Calcare Massiccio Formation, Italy",2003,"Journal of Structural Geology","25","8",,"1301","1316",,27,10.1016/S0191-8141(02)00173-6,"https://www.scopus.com/inward/record.uri?eid=2-s2.0-0037728488&doi=10.1016%2fS0191-8141%2802%2900173-6&partnerID=40&md5=b90b1b3bcbb717da6022d996134451db",Article,Scopus,2-s2.0-0037728488
"Christova, C., Scholz, C.H.","Stresses in the Vanuatu subducting slab: A test of two hypotheses",2003,"Geophysical Research Letters","30","15",,"SDE 4","1 - 4-4",,20,,"https://www.scopus.com/inward/record.uri?eid=2-s2.0-0242337447&partnerID=40&md5=c7af1a7976ef5dd4bbc212b3a0ded98c",Article,Scopus,2-s2.0-0242337447
"Aoki, Y., Scholz, C.H.","Vertical deformation of the Japanese islands, 1996-1999",2003,"Journal of Geophysical Research B: Solid Earth","108","5",,"ETG 10","1 - 10-12",,31,,"https://www.scopus.com/inward/record.uri?eid=2-s2.0-0041382365&partnerID=40&md5=f8925718253662a36e36d40bc45df21d",Article,Scopus,2-s2.0-0041382365
"Du, W.-X., Sykes, L.R., Shaw, B.E., Scholz, C.H.","Triggered aseismic fault slip from nearby earthquakes, static or dynamic effect?",2003,"Journal of Geophysical Research B: Solid Earth","108","2",,"ESE 24","1 - 24-21",,13,,"https://www.scopus.com/inward/record.uri?eid=2-s2.0-18144450482&partnerID=40&md5=1156bf9a025a4e155521b1980f9f078b",Article,Scopus,2-s2.0-18144450482
"Kogan, M.G., Bürgmann, R., Vasilenko, N.F., Scholz, C.H., King, R.W., Ivashchenko, A.I., Frolov, D.I., Steblov, G.M., Kim, Ch.U., Egorov, S.G.","The 2000 M<inf>w</inf> 6.8 Uglegorsk earthquake and regional plate boundery deformation of Sakhalin from geodetic data",2003,"Geophysical Research Letters","30","3",,"2","1",,1,,"https://www.scopus.com/inward/record.uri?eid=2-s2.0-0037660719&partnerID=40&md5=42899d29e5306355628c24d0329876cf",Article,Scopus,2-s2.0-0037660719
"Floyd, J.S., Tolstoy, M., Mutter, J.C., Scholz, C.H.","Seismotectonics of mid-ocean ridge propagation in Hess Deep",2002,"Science","298","5599",,"1765","1768",,8,10.1126/science.1077950,"https://www.scopus.com/inward/record.uri?eid=2-s2.0-2242451448&doi=10.1126%2fscience.1077950&partnerID=40&md5=c8c0e01abe4fdc3b251abb7c8f6d6164",Article,Scopus,2-s2.0-2242451448
"Tenthorey, E., Scholz, C.H.","Mapping secondary mineral formation in porous media using heavy metal tracers",2002,"Journal of Geophysical Research B: Solid Earth","107","10",,"ECV 2","1 - 2-12",,4,,"https://www.scopus.com/inward/record.uri?eid=2-s2.0-0037058194&partnerID=40&md5=de2a032f35734e505161e39c49beed0c",Article,Scopus,2-s2.0-0037058194
"Spyropoulos, C., Scholz, C.H., Shaw, B.E.","Transition regimes for growing crack populations",2002,"Physical Review E - Statistical, Nonlinear, and Soft Matter Physics","65","5", 056105,"056105/1","056105/10",,25,10.1103/PhysRevE.65.056105,"https://www.scopus.com/inward/record.uri?eid=2-s2.0-41349087238&doi=10.1103%2fPhysRevE.65.056105&partnerID=40&md5=22faabc175cd629df724b7238b4289f4",Article,Scopus,2-s2.0-41349087238
"Contreras, J., Scholz, C.H.","Evolution of stratigraphic sequences in multisegmented continental rift basins: Comparison of computer models with the basins of the East African rift system",2001,"AAPG Bulletin","85","9",,"1565","1581",,15,,"https://www.scopus.com/inward/record.uri?eid=2-s2.0-0035440817&partnerID=40&md5=5819ea5c6a5fea9889b97fa878e1249b",Article,Scopus,2-s2.0-0035440817
"Shaw, B.E., Scholz, C.H.","Slip-length scaling in large earthquakes: Observations and theory and implications for earthquake physics",2001,"Geophysical Research Letters","28","15",,"2995","2998",,50,10.1029/2000GL012762,"https://www.scopus.com/inward/record.uri?eid=2-s2.0-0035419284&doi=10.1029%2f2000GL012762&partnerID=40&md5=86e61e6b9fee942bf69916d5ef01582b",Article,Scopus,2-s2.0-0035419284
"Manighetti, I., King, G.C.P., Gaudemer, Y., Scholz, C.H., Doubre, C.","Slip accumulation and lateral propagation of active normal faults in Afar",2001,"Journal of Geophysical Research: Solid Earth","106","B7", 2000JB900471,"13667","13696",,99,,"https://www.scopus.com/inward/record.uri?eid=2-s2.0-0034909234&partnerID=40&md5=4df5809cafb5de8056a82626c1b1338f",Article,Scopus,2-s2.0-0034909234
"Bürgmann, R., Kogan, M.G., Levin, V.E., Scholz, C.H., King, R.W., Steblov, G.M.","Rapid aseismic moment release following the 5 December, 1997 Kronotsky, Kamchatka, earthquake",2001,"Geophysical Research Letters","28","7",,"1331","1334",,56,10.1029/2000GL012350,"https://www.scopus.com/inward/record.uri?eid=2-s2.0-0035302730&doi=10.1029%2f2000GL012350&partnerID=40&md5=fc4295bdafa107f64870e1af0853a455",Article,Scopus,2-s2.0-0035302730
"Scholz, C.H.","Evidence for a strong San Andreas fault",2000,"Geology","28","2",,"163","166",,161,10.1130/0091-7613(2000)28&lt;163:EFASSA&gt;2.0.CO,"https://www.scopus.com/inward/record.uri?eid=2-s2.0-84874992369&doi=10.1130%2f0091-7613%282000%2928%26lt%3b163%3aEFASSA%26gt%3b2.0.CO&partnerID=40&md5=604fc8d8ae9c106ff28acf998154ed9e",Article,Scopus,2-s2.0-84874992369
"Gupta, A., Scholz, C.H.","Brittle strain regime transition in the Afar depression: Implications for fault growth and seafloor spreading",2000,"Geology","28","12",,"1087","1090",,37,10.1130/0091-7613(2000)28&lt;1087:BSRTIT&gt;2.0.CO,"https://www.scopus.com/inward/record.uri?eid=2-s2.0-84874965261&doi=10.1130%2f0091-7613%282000%2928%26lt%3b1087%3aBSRTIT%26gt%3b2.0.CO&partnerID=40&md5=7527adf2ca854ddf0f2120f76cf258a8",Article,Scopus,2-s2.0-84874965261
"Scholz, C.H.","A fault in the 'weak San Andreas' theory [2]",2000,"Nature","406","6793",,"234","",,8,,"https://www.scopus.com/inward/record.uri?eid=2-s2.0-0034691519&partnerID=40&md5=2028c054da78777367ed418ec763b2f0",Letter,Scopus,2-s2.0-0034691519
"Gupta, A., Scholz, C.H.","A model of normal fault interaction based on observations and theory",2000,"Journal of Structural Geology","22","7",,"865","879",,151,10.1016/S0191-8141(00)00011-0,"https://www.scopus.com/inward/record.uri?eid=2-s2.0-0034120258&doi=10.1016%2fS0191-8141%2800%2900011-0&partnerID=40&md5=1a4297303a24503437501c340fa76dc0",Article,Scopus,2-s2.0-0034120258
"Scholz, C.H., Gupta, A.","Fault interactions and seismic hazard",2000,"Journal of Geodynamics","29","3-5",,"459","467",,31,10.1016/S0264-3707(99)00040-X,"https://www.scopus.com/inward/record.uri?eid=2-s2.0-0343415088&doi=10.1016%2fS0264-3707%2899%2900040-X&partnerID=40&md5=ae4f4cc92fd6b8639db255e06c9fd332",Article,Scopus,2-s2.0-0343415088
"Contreras, J., Anders, M.H., Scholz, C.H.","Growth of a normal fault system: Observations from the Lake Malawi basin of the east African rift",2000,"Journal of Structural Geology","22","2",,"159","168",,75,10.1016/S0191-8141(99)00157-1,"https://www.scopus.com/inward/record.uri?eid=2-s2.0-0033622811&doi=10.1016%2fS0191-8141%2899%2900157-1&partnerID=40&md5=6ec67099a5accd976d2113acf711f4cf",Article,Scopus,2-s2.0-0033622811
"Sykes, L.R., Shaw, B.E., Scholz, C.H.","Rethinking earthquake prediction",1999,"Pure and Applied Geophysics","155","2-4",,"207","232",,69,,"https://www.scopus.com/inward/record.uri?eid=2-s2.0-0032735954&partnerID=40&md5=629d4b2d16720a4e353eac779f949295",Article,Scopus,2-s2.0-0032735954
"Spyropoulos, C., Griffith, W.J., Scholz, C.H., Shaw, B.E.","Experimental evidence for different strain regimes of crack populations in a clay model",1999,"Geophysical Research Letters","26","8",,"1081","1084",,37,,"https://www.scopus.com/inward/record.uri?eid=2-s2.0-0033560540&partnerID=40&md5=b3c4e4a914b622a2de026e50607868df",Article,Scopus,2-s2.0-0033560540
"Vermilye, J.M., Scholz, C.H.","Fault propagation and segmentation: Insight from the microstructural examination of a small fault",1999,"Journal of Structural Geology","21","11",,"1623","1636",,38,10.1016/S0191-8141(99)00093-0,"https://www.scopus.com/inward/record.uri?eid=2-s2.0-0033398115&doi=10.1016%2fS0191-8141%2899%2900093-0&partnerID=40&md5=79a07b0131e9be385b5cd5bbd12e95ff",Article,Scopus,2-s2.0-0033398115
"Scholz, C.H., Contreras, J.C.","Mechanics of continental rift architecture",1998,"Geology","26","11",,"967","970",,70,10.1130/0091-7613(1998)026&lt;0967:MOCRA&gt;2.3.CO,"https://www.scopus.com/inward/record.uri?eid=2-s2.0-84874971080&doi=10.1130%2f0091-7613%281998%29026%26lt%3b0967%3aMOCRA%26gt%3b2.3.CO&partnerID=40&md5=8c04e9face04c67480a1212163e5f467",Article,Scopus,2-s2.0-84874971080
"Aharonov, E., Tenthorey, E., Scholz, C.H.","Precipitation sealing and diagenesis 2. Theoretical analysis",1998,"Journal of Geophysical Research: Solid Earth","103","10",,"23969","23981",,36,,"https://www.scopus.com/inward/record.uri?eid=2-s2.0-4243376747&partnerID=40&md5=24c683f83badee31371ccc57ab3e9695",Article,Scopus,2-s2.0-4243376747
"Tenthorey, E., Scholz, C.H., Aharonov, E., Léger, A.","Precipitation sealing and diagenesis 1. Experimental results",1998,"Journal of Geophysical Research: Solid Earth","103","10",,"23951","23967",,64,,"https://www.scopus.com/inward/record.uri?eid=2-s2.0-0032505796&partnerID=40&md5=e7b1c7321dabb734479ffc883afb64a0",Article,Scopus,2-s2.0-0032505796
"Aharonov, E., Tenthorey, E., Scholz, C.H.","Precipitation sealing and diagenesis. 2. Theoretical analysis",1998,"Journal of Geophysical Research: Solid Earth","103","B10",,"[d]23,969",""23,981"",,,,"https://www.scopus.com/inward/record.uri?eid=2-s2.0-0032505820&partnerID=40&md5=4eb358a5dba347d276799c12d5581d9b",Article,Scopus,2-s2.0-0032505820
"Scholz, C.H.","A further note on earthquake size distributions",1998,"Bulletin of the Seismological Society of America","88","5",,"1325","1326",,21,,"https://www.scopus.com/inward/record.uri?eid=2-s2.0-0032464956&partnerID=40&md5=cea2c19f83226a389578707f8fd936bd",Article,Scopus,2-s2.0-0032464956
"Vermilye, J.M., Scholz, C.H.","The process zone: A microstructural view of fault growth",1998,"Journal of Geophysical Research: Solid Earth","103","6",,"12223","12237",,191,,"https://www.scopus.com/inward/record.uri?eid=2-s2.0-0032503462&partnerID=40&md5=b99286194de08eec07379d8750bdbdbc",Article,Scopus,2-s2.0-0032503462
"Olsen, M.P., Scholz, C.H., Léger, A.","Healing and sealing of a simulated fault gouge under hydrothermal conditions: implications for fault healing",1998,"Journal of Geophysical Research: Solid Earth","103","B4",,"7421","7430",,76,,"https://www.scopus.com/inward/record.uri?eid=2-s2.0-0032502494&partnerID=40&md5=7e37415f4192c3873ecde6d48bf36b97",Article,Scopus,2-s2.0-0032502494
"Scholz, C.H.","Earthquakes and friction laws",1998,"Nature","391","6662",,"37","42",,866,10.1038/34097,"https://www.scopus.com/inward/record.uri?eid=2-s2.0-0031913970&doi=10.1038%2f34097&partnerID=40&md5=9688203b76b15e8840a818e2fb5abad0",Review,Scopus,2-s2.0-0031913970
"Gupta, A., Scholz, C.H.","Utility of elastic models in predicting fault displacement fields",1998,"Journal of Geophysical Research: Solid Earth","103","B1", 97JB03009,"823","834",,18,,"https://www.scopus.com/inward/record.uri?eid=2-s2.0-0001472270&partnerID=40&md5=c707b323205c2910988849fda91b0b43",Article,Scopus,2-s2.0-0001472270
"Scholz, C.","Whatever happened to earthquake prediction",1997,"Geotimes","42","3",,"16","19",,22,,"https://www.scopus.com/inward/record.uri?eid=2-s2.0-0031507064&partnerID=40&md5=1a6b947b2fb191d092c17a18dd0892bb",Article,Scopus,2-s2.0-0031507064
"Pérez, O.J., Scholz, C.H.","Long-term seismic behavior of the focal and adjacent regions of great earthquakes during the time between two successive shocks",1997,"Journal of Geophysical Research B: Solid Earth","102","B4",,"8203","8216",,16,,"https://www.scopus.com/inward/record.uri?eid=2-s2.0-0030760481&partnerID=40&md5=b35e4b00be71124ece60f936f7ddf9ef",Article,Scopus,2-s2.0-0030760481
"Contreras, J., Scholz, C.H., King, G.C.P.","A model of rift basin evolution constrained by first-order stratigraphie observations",1997,"Journal of Geophysical Research B: Solid Earth","102","B4",,"7673","7690",,34,,"https://www.scopus.com/inward/record.uri?eid=2-s2.0-0030773963&partnerID=40&md5=ec75b1e77c7a4118852008190df86a02",Article,Scopus,2-s2.0-0030773963
"Scholz, C.H.","Size distributions for large and small earthquakes",1997,"Bulletin of the Seismological Society of America","87","4",,"1074","1077",,56,,"https://www.scopus.com/inward/record.uri?eid=2-s2.0-0031414863&partnerID=40&md5=47262253767ee448951860d8ddcac762",Article,Scopus,2-s2.0-0031414863
"Scholz, C.H., Small, C.","The effect of seamount subduction on seismic coupling",1997,"Geology","25","6",,"487","490",,159,10.1130/0091-7613(1997)025&lt;0487:TEOSSO&gt;2.3.CO;2,"https://www.scopus.com/inward/record.uri?eid=2-s2.0-0031171550&doi=10.1130%2f0091-7613%281997%29025%26lt%3b0487%3aTEOSSO%26gt%3b2.3.CO%3b2&partnerID=40&md5=c510953e9ef50c6a3d5ecb7aaeaacdf8",Article,Scopus,2-s2.0-0031171550
"Scholz, C.H.","Scaling properties of faults and their populations",1997,"International journal of rock mechanics and mining sciences &amp; geomechanics abstracts","34","3-4",,"348","",,6,10.1016/S1365-1609(97)00124-X,"https://www.scopus.com/inward/record.uri?eid=2-s2.0-0031109419&doi=10.1016%2fS1365-1609%2897%2900124-X&partnerID=40&md5=aab7b1acadabea53262bfc2ed48a647d",Article,Scopus,2-s2.0-0031109419
"Scholz, C.H.","Faults without friction?",1996,"Nature","381","6583",,"556","",,22,,"https://www.scopus.com/inward/record.uri?eid=2-s2.0-0000520173&partnerID=40&md5=4c8cd16d5180cd672f5fc1ec6c82c900",Article,Scopus,2-s2.0-0000520173
"Campos, J., Madariaga, R., Scholz, C.","Faulting process of the August 8, 1993, Guam earthquake: A thrust event in an otherwise weakly coupled subduction zone",1996,"Journal of Geophysical Research B: Solid Earth","101","8",,"17581","17596",,19,,"https://www.scopus.com/inward/record.uri?eid=2-s2.0-0030423232&partnerID=40&md5=babaa8f563bb5269c4da007972227680",Article,Scopus,2-s2.0-0030423232
"Scholz, C.H., Campos, J.","On the mechanism of seismic decoupling and back arc spreading at subduction zones",1995,"Journal of Geophysical Research","100","B11",,"22,103",""22,115"",,166,,"https://www.scopus.com/inward/record.uri?eid=2-s2.0-0029540342&partnerID=40&md5=3f10fbf2df6b99db55ee819b8156be41",Article,Scopus,2-s2.0-0029540342
"Weibin Wang, Scholz, C.H.","Micromechanics of rock friction: 3. Quantitative modeling of base friction",1995,"Journal of Geophysical Research","100","B3",,"4243","4247",,5,10.1029/94JB02915,"https://www.scopus.com/inward/record.uri?eid=2-s2.0-0029507599&doi=10.1029%2f94JB02915&partnerID=40&md5=2b2128342c75e28ed8f1ed4efcc0d400",Article,Scopus,2-s2.0-0029507599
"Schmittbuhl, J., Schmitt, F., Scholz, C.","Scaling invariance of crack surfaces",1995,"Journal of Geophysical Research","100","B4",,"5953","5973",,170,10.1029/94JB02885,"https://www.scopus.com/inward/record.uri?eid=2-s2.0-0029486280&doi=10.1029%2f94JB02885&partnerID=40&md5=a29093c59c93437bda3c38e2abff7d25",Article,Scopus,2-s2.0-0029486280
"Vermilye, J.M., Scholz, C.H.","Relation between vein length and aperture",1995,"Journal of Structural Geology","17","3",,"423","434",,153,10.1016/0191-8141(94)00058-8,"https://www.scopus.com/inward/record.uri?eid=2-s2.0-0028828873&doi=10.1016%2f0191-8141%2894%2900058-8&partnerID=40&md5=40d3bd2c5659a590704d5964c8dcaaac",Article,Scopus,2-s2.0-0028828873
"Scholz, C.H., Léger, A., Karner, S.L.","Experimental diagenesis: Exploratory results",1995,"Geophysical Research Letters","22","6",,"719","722",,24,10.1029/94GL00163,"https://www.scopus.com/inward/record.uri?eid=2-s2.0-0028831449&doi=10.1029%2f94GL00163&partnerID=40&md5=e2c375fa226da535b102f18b7b2144e0",Article,Scopus,2-s2.0-0028831449
"Gilbert, L.E., Scholz, C.H., Beavan, J.","Strain localization along the San Andreas Fault: consequences for loading mechanisms",1994,"Journal of Geophysical Research","99","B12",,"23,975",""23,984"",,30,,"https://www.scopus.com/inward/record.uri?eid=2-s2.0-0028555655&partnerID=40&md5=70bb32c85cf8848655d4c54a8dda7d36",Article,Scopus,2-s2.0-0028555655
"Wang, W., Scholz, C.H.","Micromechanics of the velocity and normal stress dependence of rock friction",1994,"Pure and Applied Geophysics PAGEOPH","143","1-3",,"303","315",,20,10.1007/BF00874333,"https://www.scopus.com/inward/record.uri?eid=2-s2.0-0344219403&doi=10.1007%2fBF00874333&partnerID=40&md5=5454d404a0b2422da10360daf30f50f8",Article,Scopus,2-s2.0-0344219403
"Scholz, C.H.","A reappraisal of large earthquake scaling",1994,"Bulletin - Seismological Society of America","84","1",,"215","218",,81,,"https://www.scopus.com/inward/record.uri?eid=2-s2.0-0028193982&partnerID=40&md5=9b6094a0b7a6755b6c9aaff5b8eb4d94",Article,Scopus,2-s2.0-0028193982
"Weibin Wang, Scholz, C.H.","Wear processes during frictional sliding of rock: a theoretical and experimental study",1994,"Journal of Geophysical Research","99","B4",,"6789","6799",,39,10.1029/93JB02875,"https://www.scopus.com/inward/record.uri?eid=2-s2.0-0028262704&doi=10.1029%2f93JB02875&partnerID=40&md5=2349c72663c35cd8740aad82482f3b5b",Article,Scopus,2-s2.0-0028262704
"Cowie, P.A., Scholz, C.H., Edwards, M., Malinverno, A.","Fault strain and seismic coupling on mid-ocean ridges",1993,"Journal of Geophysical Research","98","B10",,"17,911",""17,920"",,73,,"https://www.scopus.com/inward/record.uri?eid=2-s2.0-0027882020&partnerID=40&md5=a3a981fe85f40c529e0e9123bcb0bcc5",Article,Scopus,2-s2.0-0027882020
"Pacheco, J.F., Sykes, L.R., Scholz, C.H.","Nature of seismic coupling along simple plate boundaries of the subduction type",1993,"Journal of Geophysical Research","98","B8",,"14,133",""14,159"",,269,,"https://www.scopus.com/inward/record.uri?eid=2-s2.0-0027840497&partnerID=40&md5=ae5d2d559380861b8ec4bb4f64c1cf75",Article,Scopus,2-s2.0-0027840497
"Dawers, N.H., Anders, M.H., Scholz, C.H.","Growth of normal faults: displacement-length scaling",1993,"Geology","21","12",,"1107","1110",,295,10.1130/0091-7613(1993)021&lt;1107:GONFDL&gt;2.3.CO;2,"https://www.scopus.com/inward/record.uri?eid=2-s2.0-84879881226&doi=10.1130%2f0091-7613%281993%29021%26lt%3b1107%3aGONFDL%26gt%3b2.3.CO%3b2&partnerID=40&md5=aeb844cb784168cf6a17d09b5779974c",Article,Scopus,2-s2.0-84879881226
"Scholz, C.H., Dawers, N.H., Yu, J.-Z., Anders, M.H., Cowie, P.A.","Fault growth and fault scaling laws: preliminary results",1993,"Journal of Geophysical Research","98","B12",,"21,951",""21,961"",,237,,"https://www.scopus.com/inward/record.uri?eid=2-s2.0-0027868747&partnerID=40&md5=45efcf4554b842252896e431b83c8c38",Article,Scopus,2-s2.0-0027868747
"Wang, W., Scholz, C.H.","Scaling of constitutive parameters of friction for fractal surfaces",1993,"International Journal of Rock Mechanics and Mining Sciences and","30","7",,"1359","1365",,10,10.1016/0148-9062(93)90122-T,"https://www.scopus.com/inward/record.uri?eid=2-s2.0-0027811758&doi=10.1016%2f0148-9062%2893%2990122-T&partnerID=40&md5=9979304eb8eec88ef45721de91b1e52e",Article,Scopus,2-s2.0-0027811758
"Tingle, T.N., Green II, H.W., Scholz, C.H., Koczynski, T.A.","The rheology of faults triggered by the olivine-spinel transformation in Mg2GeO4 and its implications for the mechanism of deep-focus earthquakes",1993,"Journal of Structural Geology","15","9-10",,"1249","1256",,30,10.1016/0191-8141(93)90167-9,"https://www.scopus.com/inward/record.uri?eid=2-s2.0-0027666377&doi=10.1016%2f0191-8141%2893%2990167-9&partnerID=40&md5=250e6ac7d7dcfa4e4927d3ced3161a57",Article,Scopus,2-s2.0-0027666377
"Bjarnason, I.T., Cowie, P., Anders, M.H., Seeber, L., Scholz, C.H.","The 1912 Iceland earthquake rupture: growth and development of a nascent transform system",1993,"Bulletin - Seismological Society of America","83","2",,"416","435",,51,,"https://www.scopus.com/inward/record.uri?eid=2-s2.0-0027385849&partnerID=40&md5=05a57f046f4cc185a1bbdc9a8da3a0e1",Article,Scopus,2-s2.0-0027385849
"Scholz, C.H.","Weakness amidst strength",1992,"Nature","359","6397",,"677","678",,13,,"https://www.scopus.com/inward/record.uri?eid=2-s2.0-0006529115&partnerID=40&md5=15038ed9859143f952d97601a9ea86e6",Short Survey,Scopus,2-s2.0-0006529115
"Scholz, C.H.","Models of the seismic cycle",1992,"Nature","355","6363",,"774","775",,2,,"https://www.scopus.com/inward/record.uri?eid=2-s2.0-4143083253&partnerID=40&md5=2a1bb7c7b341fa60dbe7e8573b8993a8",Short Survey,Scopus,2-s2.0-4143083253
"Pacheco, J.F., Scholz, C.H., Sykes, L.R.","Changes in frequency-size relationship from small to large earthquakes",1992,"Nature","355","6355",,"71","73",,245,,"https://www.scopus.com/inward/record.uri?eid=2-s2.0-0026460253&partnerID=40&md5=3c2c267af1b2b214796038f5a325d73c",Article,Scopus,2-s2.0-0026460253
"Scholz, C.H.","Paradigms or Small Change in Earthquake Mechanics",1992,"International Geophysics","51","C",,"505","517",,2,10.1016/S0074-6142(08)62836-3,"https://www.scopus.com/inward/record.uri?eid=2-s2.0-77956840304&doi=10.1016%2fS0074-6142%2808%2962836-3&partnerID=40&md5=6a088dd118989e128bac65a9c4d83353",Article,Scopus,2-s2.0-77956840304
"Cowie, P.A., Scholz, C.H.","Displacement-length scaling relationship for faults: data synthesis and discussion",1992,"Journal of Structural Geology","14","10",,"1149","1156",,340,10.1016/0191-8141(92)90066-6,"https://www.scopus.com/inward/record.uri?eid=2-s2.0-0027071487&doi=10.1016%2f0191-8141%2892%2990066-6&partnerID=40&md5=c929659b7706f38f64041d21058401bc",Article,Scopus,2-s2.0-0027071487
"Cowie, P.A., Scholz, C.H.","Growth of faults by accumulation of seismic slip",1992,"Journal of Geophysical Research","97","B7",,"11,085",""11,095"",,176,,"https://www.scopus.com/inward/record.uri?eid=2-s2.0-0026497408&partnerID=40&md5=751568b9c56dca3be4aff2323aa8df1b",Article,Scopus,2-s2.0-0026497408
"Cowie, P.A., Scholz, C.H.","Physical explanation for the displacement-length relationship of faults using a post-yield fracture mechanics model",1992,"Journal of Structural Geology","14","10",,"1133","1148",,362,10.1016/0191-8141(92)90065-5,"https://www.scopus.com/inward/record.uri?eid=2-s2.0-0027070182&doi=10.1016%2f0191-8141%2892%2990065-5&partnerID=40&md5=d6063ace5640ad954d9565b31be53bb3",Article,Scopus,2-s2.0-0027070182
"Biegel, R.L., Wang, W., Scholz, C.H., Boitnott, G.N., Yoshioka, N.","Micromechanics of rock friction: 1. Effects of surface roughness on initial friction and slip hardening in Westerly granite",1992,"Journal of Geophysical Research","97","B6",,"8951","8964",,35,,"https://www.scopus.com/inward/record.uri?eid=2-s2.0-0026484301&partnerID=40&md5=c1f6a6de87ea75addfbbf79007f3e088",Article,Scopus,2-s2.0-0026484301
"Boitnott, G.N., Biegel, R.L., Scholz, C.H., Yoshioka, N., Wang, W.","Micromechanics of rock friction: 2. Quantitative modeling of initial friction with contact theory",1992,"Journal of Geophysical Research","97","B6",,"8965","8978",,60,,"https://www.scopus.com/inward/record.uri?eid=2-s2.0-0026445412&partnerID=40&md5=651da92ab525321e44ca1d5796f87598",Article,Scopus,2-s2.0-0026445412
"Green, H.W., Scholz, C.H., Tingle, T.N., Young, T.E., Koczynski, T.A.","Acoustic emissions produced by anticrack faulting during the olivine→spinel transformation",1992,"Geophysical Research Letters","19","8",,"789","792",,32,10.1029/92GL00751,"https://www.scopus.com/inward/record.uri?eid=2-s2.0-0026480034&doi=10.1029%2f92GL00751&partnerID=40&md5=9db4ec0fe35580ba630a7d34f47447ae",Article,Scopus,2-s2.0-0026480034
"Green II, H.W., Young, T.E., Walker, D., Scholz, C.H.","Erratum: Anticrack-associated faulting at very high pressure in natural olivine (Nature (1990) 348, (720-722))",1991,"Nature","349","6306",,"264","",,,,"https://www.scopus.com/inward/record.uri?eid=2-s2.0-36849147075&partnerID=40&md5=76a5c26f7aee51fb81a92fe5b3c57d69",Erratum,Scopus,2-s2.0-36849147075
"Brown, S.R., Scholz, C.H., Rundle, J.B.","A simplified spring‐block model of earthquakes",1991,"Geophysical Research Letters","18","2",,"215","218",,102,10.1029/91GL00210,"https://www.scopus.com/inward/record.uri?eid=2-s2.0-0026024593&doi=10.1029%2f91GL00210&partnerID=40&md5=45fd1b351f47532ef4547075b016b598",Article,Scopus,2-s2.0-0026024593
"Scholz, C.H.","Earthquakes as chaos",1990,"Nature","348","6298",,"197","198",,22,,"https://www.scopus.com/inward/record.uri?eid=2-s2.0-4243172266&partnerID=40&md5=5913091b959ae4fc114152c058c0a1cc",Short Survey,Scopus,2-s2.0-4243172266
"Scholz, C.H., Cowie, P.A.","Determination of total strain from faulting using slip measurements",1990,"Nature","346","6287",,"837","839",,242,,"https://www.scopus.com/inward/record.uri?eid=2-s2.0-0025680484&partnerID=40&md5=c33f4f9f34ce6ccc5692a5d819c48c26",Article,Scopus,2-s2.0-0025680484
"Boitnott, G.N., Scholz, C.H.","Direct measurement of the effective pressure law: deformation of joints subject to pore and confining pressures",1990,"Journal of Geophysical Research","95","B12",,"19,279",""19,298"",,12,,"https://www.scopus.com/inward/record.uri?eid=2-s2.0-0025625777&partnerID=40&md5=e24dc41de18ac7ffa92f1cc87a569072",Article,Scopus,2-s2.0-0025625777
"Green II, H.W., Young, T.E., Walker, D., Scholz, C.H.","Anticrack-associated faulting at very high pressure in natural olivine",1990,"Nature","348","6303",,"720","722",,104,,"https://www.scopus.com/inward/record.uri?eid=2-s2.0-0025626791&partnerID=40&md5=c9ea615f07c800229c8931193180f2c8",Article,Scopus,2-s2.0-0025626791
"Marone, C., Raleigh, C.B., Scholz, C.H.","Frictional behavior and constitutive modeling of simulated fault gouge",1990,"Journal of Geophysical Research","95","B5",,"7007","7025",,270,,"https://www.scopus.com/inward/record.uri?eid=2-s2.0-0025243268&partnerID=40&md5=6844618a367a8003ac109680ea2557b9",Article,Scopus,2-s2.0-0025243268
"Scholz, C.H.","Mechanics of faulting",1989,"Annual review of earth and planetary sciences. Vol. 17",,,,"309","334",,57,,"https://www.scopus.com/inward/record.uri?eid=2-s2.0-0024935966&partnerID=40&md5=44bc6b083a576392d980289d7525d9f6",Article,Scopus,2-s2.0-0024935966
"Scholz, C.H.","Global perspectives of chaos",1989,"Nature","338","6215",,"459","460",,2,,"https://www.scopus.com/inward/record.uri?eid=2-s2.0-36849145022&partnerID=40&md5=730f76732302b4e10ae73beb79fb39b8",Short Survey,Scopus,2-s2.0-36849145022
"Yoshioka, N., Scholz, C.H.","Elastic properties of contracting surfaces under normal and shear loads 1. Theory",1989,"Journal of Geophysical Research","94","B12",,"17,681",""17,690"",,93,,"https://www.scopus.com/inward/record.uri?eid=2-s2.0-0024932794&partnerID=40&md5=d12c456503980a0a522b4dbc4782ad82",Article,Scopus,2-s2.0-0024932794
"Scholz, C.H., Mandelbrot, B.B.","Introduction",1989,"Pure and Applied Geophysics PAGEOPH","131","1-2",,"1","4",,8,10.1007/BF00874477,"https://www.scopus.com/inward/record.uri?eid=2-s2.0-34249967302&doi=10.1007%2fBF00874477&partnerID=40&md5=4ba76d18519e1e41f54adab1386a1315",Editorial,Scopus,2-s2.0-34249967302
"Marone, C., Scholz, C.H.","Particle-size distribution and microstructures within simulated fault gouge",1989,"Journal of Structural Geology","11","7",,"799","814",,192,10.1016/0191-8141(89)90099-0,"https://www.scopus.com/inward/record.uri?eid=2-s2.0-0024909799&doi=10.1016%2f0191-8141%2889%2990099-0&partnerID=40&md5=bbd28205aa6754c1d45aeeb4d0f7b82b",Article,Scopus,2-s2.0-0024909799
"Scholz, C.H.","The critical slip distance for seismic faulting",1988,"Nature","336","6201",,"761","763",,84,,"https://www.scopus.com/inward/record.uri?eid=2-s2.0-0024248509&partnerID=40&md5=c60c67487e0a086c74065f9e215c6270",Article,Scopus,2-s2.0-0024248509
"Simpson, D.W., Leith, W.S., Scholz, C.H.","Two types of reservoir-induced seismicity",1988,"Bulletin - Seismological Society of America","78","6",,"2025","2040",,199,,"https://www.scopus.com/inward/record.uri?eid=2-s2.0-0024163295&partnerID=40&md5=287c845e205b9ef5d4d30082a1eed484",Article,Scopus,2-s2.0-0024163295
"Scholz, C.H.","Mechanisms of seismic quiescences",1988,"Pure and Applied Geophysics PAGEOPH","126","2-4",,"701","718",,64,10.1007/BF00879016,"https://www.scopus.com/inward/record.uri?eid=2-s2.0-0023791725&doi=10.1007%2fBF00879016&partnerID=40&md5=b0cfcb86d1c14e20f825203ee55b5d3d",Article,Scopus,2-s2.0-0023791725
"Scholz, C.H.","The brittle-plastic transition and the depth of seismic faulting",1988,"Geologische Rundschau","77","1",,"319","328",,264,10.1007/BF01848693,"https://www.scopus.com/inward/record.uri?eid=2-s2.0-34250090620&doi=10.1007%2fBF01848693&partnerID=40&md5=f40574033a6c611016174ce5bf88b984",Article,Scopus,2-s2.0-34250090620
"Cox, S.J.D., Scholz, C.H.","Rupture initiation in shear fracture of rocks: an experimental study.",1988,"Journal of Geophysical Research","93","B4",,"3307","3320",,65,,"https://www.scopus.com/inward/record.uri?eid=2-s2.0-0023790597&partnerID=40&md5=915abbcb2dfb37b5f19ff6927745c77d",Article,Scopus,2-s2.0-0023790597
"Cox, S.J.D., Scholz, C.H.","On the formation and growth of faults: an experimental study",1988,"Journal of Structural Geology","10","4",,"413","430",,117,10.1016/0191-8141(88)90019-3,"https://www.scopus.com/inward/record.uri?eid=2-s2.0-0023822874&doi=10.1016%2f0191-8141%2888%2990019-3&partnerID=40&md5=3d803d4bfdb1beedfae8f1f34190e692",Article,Scopus,2-s2.0-0023822874
"Evans, K.F., Scholz, C.H., Engelder, T.","An analysis of horizontal fracture initiation during hydrofrac stress measurements in granite at North Conway, New Hampshire",1988,"Geophysical Journal","93","2",,"251","264",,6,10.1111/j.1365-246X.1988.tb02000.x,"https://www.scopus.com/inward/record.uri?eid=2-s2.0-0024252668&doi=10.1111%2fj.1365-246X.1988.tb02000.x&partnerID=40&md5=d41e81f9afc931bca80cb4942d6682f0",Article,Scopus,2-s2.0-0024252668
"Scholz, C.H.","Wear and gouge formation in brittle faulting.",1987,"Geology","15","6",,"493","495",,160,10.1130/0091-7613(1987)15&lt;493:WAGFIB&gt;2.0.CO,"https://www.scopus.com/inward/record.uri?eid=2-s2.0-0023481167&doi=10.1130%2f0091-7613%281987%2915%26lt%3b493%3aWAGFIB%26gt%3b2.0.CO&partnerID=40&md5=bf3e74011743b1659964dc0c0e13c1ef",Article,Scopus,2-s2.0-0023481167
"Aviles, C.A., Scholz, C.H., Boatwright, J.","Fractal analysis applied to characteristic segments of the San Andreas fault ( USA).",1987,"Journal of Geophysical Research","92","B1",,"331","344",,188,,"https://www.scopus.com/inward/record.uri?eid=2-s2.0-0023513501&partnerID=40&md5=aaf15a7491d475ad3a659a04f67a4008",Article,Scopus,2-s2.0-0023513501
"Power, W.L., Tullis, T.E., Brown, S.R., Boitnott, G.N., Scholz, C.H.","Roughness of natural fault surfaces",1987,"Geophysical Research Letters","14","1",,"29","32",,192,10.1029/GL014i001p00029,"https://www.scopus.com/inward/record.uri?eid=2-s2.0-0023481161&doi=10.1029%2fGL014i001p00029&partnerID=40&md5=d8ba64e911431f5d5637ebb3efc468d6",Article,Scopus,2-s2.0-0023481161
"Scholz, C.H., Boitnott, G., Nemat-Nasser, S.","The bridgman ring paradox revisited",1986,"Pure and Applied Geophysics PAGEOPH","124","3",,"587","599",,8,10.1007/BF00877217,"https://www.scopus.com/inward/record.uri?eid=2-s2.0-0022834465&doi=10.1007%2fBF00877217&partnerID=40&md5=36a99d9725f2a6bbcd31af9b53dca0d8",Article,Scopus,2-s2.0-0022834465
"Scholz, C.H.","Earthquake prediction and seismic hazard.",1985,"Earthquake Prediction Research","3","1",,"11","23",,4,,"https://www.scopus.com/inward/record.uri?eid=2-s2.0-0022182775&partnerID=40&md5=50f973b70b4f4981af0dba87a6209938",Article,Scopus,2-s2.0-0022182775
"Brown, S.R., Scholz, C.H.","Broad bandwidth study of the topography of natural rock surfaces.",1985,"Journal of Geophysical Research","90","B14",,"12,575",""12,582"",,502,,"https://www.scopus.com/inward/record.uri?eid=2-s2.0-0022189735&partnerID=40&md5=da576c2069e2e82c245c03ebee5cef1a",Article,Scopus,2-s2.0-0022189735
"Scholz, C.H., Aviles, C.A., Wesnousky, S.G.","Scaling differences between large interplate and intraplate earthquakes.",1985,,,,,"","",16,,,"https://www.scopus.com/inward/record.uri?eid=2-s2.0-0022190420&partnerID=40&md5=51a7a40f79fb37bf43af589c32ccab30",Article,Scopus,2-s2.0-0022190420
"Scholz, C.H.","The Black Mountain asperity: Seismic hazard of the southern San Francisco Peninsula, California",1985,"Geophysical Research Letters","12","10",,"717","719",,26,10.1029/GL012i010p00717,"https://www.scopus.com/inward/record.uri?eid=2-s2.0-0022236237&doi=10.1029%2fGL012i010p00717&partnerID=40&md5=023c12bb7e4d4aebba98c9c6ee0f2e81",Article,Scopus,2-s2.0-0022236237
"Cox, S.J.D., Scholz, C.H.","A direct measurement of shear fracture energy in rocks",1985,"Geophysical Research Letters","12","12",,"813","816",,7,10.1029/GL012i012p00813,"https://www.scopus.com/inward/record.uri?eid=2-s2.0-0022265875&doi=10.1029%2fGL012i012p00813&partnerID=40&md5=dd0970ad8a190650930050d7b91c85f8",Article,Scopus,2-s2.0-0022265875
"Brown, S., Scholz, C.","Experiments confirm rock-fracture theory.",1984,"Geotimes","29","12",,"12","14",,,,"https://www.scopus.com/inward/record.uri?eid=2-s2.0-0021539502&partnerID=40&md5=e79a81d7763a37b30f4660f1c7b4c2c6",Article,Scopus,2-s2.0-0021539502
"Das, S., Scholz, C.H.","Why large earthquakes do not nucleate at shallow depths",1983,"Nature","305","5935",,"621","623",,97,10.1038/305621a0,"https://www.scopus.com/inward/record.uri?eid=2-s2.0-0021057954&doi=10.1038%2f305621a0&partnerID=40&md5=7f1290a63c00f06789dfa7cf83da0cfb",Article,Scopus,2-s2.0-0021057954
"Scholz, C.H., Hickman, S.H.","Hysteresis in the closure of a nominally flat crack.",1983,"Journal of Geophysical Research","88","B8",,"6501","6504",,24,,"https://www.scopus.com/inward/record.uri?eid=2-s2.0-0020975259&partnerID=40&md5=5cbec5534fb4d8aa840546996bb07a98",Article,Scopus,2-s2.0-0020975259
"Wesnousky, S.G., Scholz, C.H., Shimazaki, K., Matsuda, T.","Earthquake frequency distribution and the mechanics of faulting ( Japan).",1983,"Journal of Geophysical Research","88","B11",,"9331","9340",,99,,"https://www.scopus.com/inward/record.uri?eid=2-s2.0-0020846517&partnerID=40&md5=536acdf77c1d3bba8d3fcc9444e21410",Article,Scopus,2-s2.0-0020846517
"Scholz, C., Engelder, T.","The time-dependent transmissivity of joints.",1982,,,,,"","",29,,,"https://www.scopus.com/inward/record.uri?eid=2-s2.0-17144443903&partnerID=40&md5=1defa940879e14065c81bfe8120936f3",Article,Scopus,2-s2.0-17144443903
"Wesnousky, S.G., Scholz, C.H., Shimazaki, K.","Deformation of an island arc: rates of moment release and crustal shortening in intraplate Japan determined from seismicity and Quaternary fault data.",1982,"Journal of Geophysical Research","87","B8",,"6829","6852",,85,,"https://www.scopus.com/inward/record.uri?eid=2-s2.0-0020427264&partnerID=40&md5=11af808d32bdef7750594b343fc30f1a",Article,Scopus,2-s2.0-0020427264
"Soufleris, C., Jackson, J.A., King, G.C.P., Spencer, C.A., Scholz, C.H.","The 1978 earthquake sequence near Thessaloniki (northern Greece)",1982,"Geophysical Journal of the Royal Astronomical Society","68","2",,"429","458",,63,10.1111/j.1365-246X.1982.tb04908.x,"https://www.scopus.com/inward/record.uri?eid=2-s2.0-0019910273&doi=10.1111%2fj.1365-246X.1982.tb04908.x&partnerID=40&md5=ea8fce786034f0fbe3b82abaa3106a90",Article,Scopus,2-s2.0-0019910273
"Scholz, Christopher H.","SCALING LAWS FOR LARGE EARTHQUAKES; CONSEQUENCES FOR PHYSICAL MODELS.",1981,,,,,"108","",,,,"https://www.scopus.com/inward/record.uri?eid=2-s2.0-0019651933&partnerID=40&md5=dfc5da4815ee1b150ba4a0e08c73c4e9",Conference Paper,Scopus,2-s2.0-0019651933
"Das, S., Scholz, C.H.","Theory of time-dependent rupture in the Earth.",1981,"Journal of Geophysical Research","86","B7",,"6039","6051",,206,,"https://www.scopus.com/inward/record.uri?eid=2-s2.0-0019685675&partnerID=40&md5=b82ca3ea05d38bc9e42b3b7f54ed09be",Article,Scopus,2-s2.0-0019685675
"Scholz, C.H., Bilham, R., Johnson, T.L.","Strain buildup and release, earthquake prediction and selection of VBL sites for margins of the North Pacific.",1981,,,,,"","",15,,,"https://www.scopus.com/inward/record.uri?eid=2-s2.0-0019757003&partnerID=40&md5=331b88e769e45369b9c6008d76ac8abe",Article,Scopus,2-s2.0-0019757003
"Scholz, C.","Shear heating and the state of stress on faults.",1980,"Journal of Geophysical Research","85","B11",,"6174","6184",,81,,"https://www.scopus.com/inward/record.uri?eid=2-s2.0-0019141689&partnerID=40&md5=fce5e49dda4a6bec31012b77b63cd7a0",Article,Scopus,2-s2.0-0019141689
"Das, S., Scholz, C.H.","STRESS CORROSION CRACKING IN THE EARTH.",1980,"American Society of Mechanical Engineers, Applied Mechanics Division, AMD","42",,,"11","18",,1,,"https://www.scopus.com/inward/record.uri?eid=2-s2.0-0019284068&partnerID=40&md5=d08fb01a87392ad87eb2486394bd566d",Article,Scopus,2-s2.0-0019284068
"Das, S., Scholz, C.H.","Theory of time-dependent rupture in the earth.",1980,,,,,"","",53,,,"https://www.scopus.com/inward/record.uri?eid=2-s2.0-0019233270&partnerID=40&md5=2b704562374fe4088e33e71734f0a87a",Article,Scopus,2-s2.0-0019233270
"Wesnousky, S.G., Scholz, C.H.","The craton: Its effect on the distribution of seismicity and stress in North America",1980,"Earth and Planetary Science Letters","48","2",,"348","355",,16,10.1016/0012-821X(80)90198-3,"https://www.scopus.com/inward/record.uri?eid=2-s2.0-0019193519&doi=10.1016%2f0012-821X%2880%2990198-3&partnerID=40&md5=53ecc134b2875025e55f23451d99ea14",Article,Scopus,2-s2.0-0019193519
"Scholz, C.H., Koczynski, T.A.","Dilatancy anisotropy and the response of rock to large cyclic loads.",1979,"Journal of Geophysical Research","84","B10",,"5525","5534",,46,,"https://www.scopus.com/inward/record.uri?eid=2-s2.0-0018655960&partnerID=40&md5=3e907d42a9f025da4dc7dc3c4404c7e1",Article,Scopus,2-s2.0-0018655960
"Scholz, C.H., Johnson, T.L.","Strain buildup and release, earthquake prediction and selection of VLB sites for the margins of the North Pacific. Semiannual progress report.",1979,,,,,"","",11,,,"https://www.scopus.com/inward/record.uri?eid=2-s2.0-0018617185&partnerID=40&md5=8b86eccd5b9a8d7f93fa03136ea8f167",Article,Scopus,2-s2.0-0018617185
"Kranzz, R.L., Frankel, A.D., Engelder, T., Scholz, C.H.","The permeability of whole and jointed Barre Granite",1979,"International Journal of Rock Mechanics and Mining Sciences and","16","4",,"225","234",,190,10.1016/0148-9062(79)91197-5,"https://www.scopus.com/inward/record.uri?eid=2-s2.0-0018504927&doi=10.1016%2f0148-9062%2879%2991197-5&partnerID=40&md5=02f4cca4cb687936578b40a9a512c41f",Article,Scopus,2-s2.0-0018504927
"Scholz, C.H.","Velocity anomalies in dilatant rock",1978,"Science","201","4354",,"441","442",,7,,"https://www.scopus.com/inward/record.uri?eid=2-s2.0-6844230229&partnerID=40&md5=40fa5878717929b7c72210fdafd02812",Article,Scopus,2-s2.0-6844230229
"Rynn, J.M., Scholz, C.H.","Seismotectonics of the Arthur's Pass region, South Island, New Zealand",1978,"Bulletin of the Geological Society of America","89","9",,"1373","1388",,19,10.1130/0016-7606(1978)89&lt;1373:SOTAPR&gt;2.0.CO;2,"https://www.scopus.com/inward/record.uri?eid=2-s2.0-0001185137&doi=10.1130%2f0016-7606%281978%2989%26lt%3b1373%3aSOTAPR%26gt%3b2.0.CO%3b2&partnerID=40&md5=4cf2e5f4c2de1c240a41ee48b3b62c4e",Article,Scopus,2-s2.0-0001185137
"Scholz, C.H.","Transform fault systems of California and New Zealand: Similarities in their tectonic and seismic styles",1977,"Journal of the Geological Society","133","3",,"215","228",,25,10.1144/gsjgs.133.3.0215,"https://www.scopus.com/inward/record.uri?eid=2-s2.0-0042125578&doi=10.1144%2fgsjgs.133.3.0215&partnerID=40&md5=1287276f13d33582382585dd17ccdc24",Article,Scopus,2-s2.0-0042125578
"Scholz, C.H.","A physical interpretation of the Haicheng earthquake prediction",1977,"Nature","267","5607",,"121","124",,61,10.1038/267121a0,"https://www.scopus.com/inward/record.uri?eid=2-s2.0-0001722696&doi=10.1038%2f267121a0&partnerID=40&md5=f59bbbc85c045154951060d915547810",Article,Scopus,2-s2.0-0001722696
"Scholz, C.H., Engelder, J.T.","The role of asperity indentation and ploughing in rock friction - I. Asperity creep and stick-slip",1976,"International Journal of Rock Mechanics and Mining Sciences and","13","5",,"149","154",,150,10.1016/0148-9062(76)90819-6,"https://www.scopus.com/inward/record.uri?eid=2-s2.0-0016952610&doi=10.1016%2f0148-9062%2876%2990819-6&partnerID=40&md5=d8b4b0a8a1ff46f6a83a7cdfbd8cca06",Article,Scopus,2-s2.0-0016952610
"Engelder, J.T., Scholz, C.H.","The role of asperity indentation and ploughing in rock friction-II. Influence of relative hardness and normal load",1976,"International Journal of Rock Mechanics and Mining Sciences and","13","5",,"155","163",,34,10.1016/0148-9062(76)90820-2,"https://www.scopus.com/inward/record.uri?eid=2-s2.0-0016950167&doi=10.1016%2f0148-9062%2876%2990820-2&partnerID=40&md5=b05d42605d6495244cdf1f8e7f01d9fd",Article,Scopus,2-s2.0-0016950167
"Scholz, C.H.","Post-earthquake dilatancy recovery",1974,"Geology","2","11",,"551","554",,15,10.1130/0091-7613(1974)2&lt;551:PDR&gt;2.0.CO;2,"https://www.scopus.com/inward/record.uri?eid=2-s2.0-0011206078&doi=10.1130%2f0091-7613%281974%292%26lt%3b551%3aPDR%26gt%3b2.0.CO%3b2&partnerID=40&md5=1bc3742e4fd32a5ed169e63ad3afa723",Article,Scopus,2-s2.0-0011206078
"Spetzler, H., Scholz, C.H., Lu, C.-P.J.","Strain and creep measurements on rocks by halographic interferometry",1974,"Pure and Applied Geophysics PAGEOPH","112","3",,"571","581",,14,10.1007/BF00877294,"https://www.scopus.com/inward/record.uri?eid=2-s2.0-0042033611&doi=10.1007%2fBF00877294&partnerID=40&md5=35324e889e39b8f02abd5b1822bff16a",Article,Scopus,2-s2.0-0042033611
"Scholz, Christopher H.","COMPARISON OF THE SAN ANDREAS FAULT WITH THE ALPINE FAULT.",1973,,,,,"186","191",,3,,"https://www.scopus.com/inward/record.uri?eid=2-s2.0-0015746365&partnerID=40&md5=18c577744083aae75cc1df4b11e0b8f6",Article,Scopus,2-s2.0-0015746365
"Scholz, C.H., Sykes, L.R., Aggarwal, Y.P.","Earthquake prediction: A physical basis",1973,"Science","181","4102",,"803","810",,610,,"https://www.scopus.com/inward/record.uri?eid=2-s2.0-0344245424&partnerID=40&md5=5a50fe62f38133373cc02d4772d8d6e0",Review,Scopus,2-s2.0-0344245424
"Johnson, T., Wu, F.T., Scholz, C.H.","Source parameters for stick-slip and for earthquakes",1973,"Science","179","4070",,"278","279",,42,,"https://www.scopus.com/inward/record.uri?eid=2-s2.0-0006165669&partnerID=40&md5=3ff607cd9f1bea4299fe08165c9d2d74",Article,Scopus,2-s2.0-0006165669
"Scholz, C.H., Rynn, J.M.W., Weed, R.W., Frohlich, C.","Detailed seismicity of the alpine fault zone and Fiordland region, New Zealand",1973,"Bulletin of the Geological Society of America","84","10",,"3297","3316",,56,10.1130/0016-7606(1973)84&lt;3297:DSOTAF&gt;2.0.CO;2,"https://www.scopus.com/inward/record.uri?eid=2-s2.0-0000690376&doi=10.1130%2f0016-7606%281973%2984%26lt%3b3297%3aDSOTAF%26gt%3b2.0.CO%3b2&partnerID=40&md5=a03e4e96f2438af90501e76d2c897f1b",Article,Scopus,2-s2.0-0000690376
"Sbar, M.L., Barazangi, M., Dorman, J., Scholz, C.H., Smith, R.B.","Tectonics of the intermountain seismic belt, western United States: Microearthquake seismicity and composite fault plane solutions",1972,"Bulletin of the Geological Society of America","83","1",,"13","28",,15,10.1130/0016-7606(1972)83[13:TOTISB]2.0.CO;2,"https://www.scopus.com/inward/record.uri?eid=2-s2.0-0007369835&doi=10.1130%2f0016-7606%281972%2983%5b13%3aTOTISB%5d2.0.CO%3b2&partnerID=40&md5=892341b0be88dcf1a2244fa70d8edbf9",Article,Scopus,2-s2.0-0007369835
"Scholz, C.H.","Crustal movements in tectonic areas",1972,"Tectonophysics","14","3-4",,"201","217",,21,10.1016/0040-1951(72)90069-8,"https://www.scopus.com/inward/record.uri?eid=2-s2.0-33745247831&doi=10.1016%2f0040-1951%2872%2990069-8&partnerID=40&md5=6eb8646bd42275465d65ecc67996b1e8",Article,Scopus,2-s2.0-33745247831
"Scholz, C.H., Barazangi, M., Sbar, M.L.","Late cenozoic evolution of the great basin, western United States, as an ensialic interarc basin",1971,"Bulletin of the Geological Society of America","82","11",,"2979","2990",,73,10.1130/0016-7606(1971)82[2979:LCEOTG]2.0.CO;2,"https://www.scopus.com/inward/record.uri?eid=2-s2.0-0000882572&doi=10.1130%2f0016-7606%281971%2982%5b2979%3aLCEOTG%5d2.0.CO%3b2&partnerID=40&md5=2dcc06b70d97c14c507d7eb31b34b3ea",Article,Scopus,2-s2.0-0000882572
"Scholz, C.H.","Rock mechanics and dynamic processes in the crust",1971,"Eos, Transactions American Geophysical Union","52","5",,"IUGG 126","IUGG 130",,,10.1029/EO052i005pIU126,"https://www.scopus.com/inward/record.uri?eid=2-s2.0-85005502086&doi=10.1029%2fEO052i005pIU126&partnerID=40&md5=57559577757227714ef2382c51f94e8e",Article,Scopus,2-s2.0-85005502086
"Schreiber, E., Anderson, O.L., Soga, N., Warren, N., Scholz, C.","Sound velocity and compressibility for lunar rocks 17 and 46 and for glass spheres from the lunar soil",1970,"Science","167","3918",,"732","734",,15,,"https://www.scopus.com/inward/record.uri?eid=2-s2.0-0010405983&partnerID=40&md5=8c6e39ea62b2159bc443cd1ae6de6914",Article,Scopus,2-s2.0-0010405983
"Scholz, C.H., Engelder, J.T.","The role of asperity indentation and ploughing in rock friction. Part 1: asperity creep and stick-slip.",1966,,,,,"","",,,,"https://www.scopus.com/inward/record.uri?eid=2-s2.0-0013723106&partnerID=40&md5=9885d4cac0676c3bb7b2b7d3adeccef6",Article,Scopus,2-s2.0-0013723106
"Engelder, J.T., Scholz, C.H.","The role of asperity indentation and ploughing in rock friction. Part 2: influence of relative hardness and normal load.",1966,,,,,"","",,,,"https://www.scopus.com/inward/record.uri?eid=2-s2.0-0013725161&partnerID=40&md5=ab22de05b2ed1fb2bc3fca2ef7e5de31",Article,Scopus,2-s2.0-0013725161
